Version identifier: 22.1.1.0 | 2022-11-28 | 9160aff4d
CPXPARAM_ClockType                               1
CPXPARAM_Read_DataCheck                          1
CPXPARAM_Threads                                 1
CPXPARAM_TimeLimit                               7200
CPXPARAM_MIP_Tolerances_AbsMIPGap                0
CPXPARAM_MIP_Tolerances_MIPGap                   0
CPXPARAM_MIP_Tolerances_Integrality              0
Tried aggregator 2 times.
MIP Presolve eliminated 1295 rows and 0 columns.
MIP Presolve modified 1360 coefficients.
Aggregator did 450 substitutions.
Reduced MIP has 2480 rows, 1650 columns, and 7020 nonzeros.
Reduced MIP has 1650 binaries, 0 generals, 0 SOSs, and 0 indicators.
Presolve time = 0.02 sec. (9.77 ticks)
Probing time = 0.01 sec. (1.14 ticks)
Tried aggregator 1 time.
Detecting symmetries...
MIP Presolve eliminated 250 rows and 0 columns.
Reduced MIP has 2230 rows, 1650 columns, and 6270 nonzeros.
Reduced MIP has 1650 binaries, 0 generals, 0 SOSs, and 0 indicators.
Presolve time = 0.01 sec. (7.37 ticks)
Probing time = 0.00 sec. (0.94 ticks)
Clique table members: 1780.
MIP emphasis: balance optimality and feasibility.
MIP search method: dynamic search.
Parallel mode: none, using 1 thread.
Root relaxation solution time = 0.15 sec. (116.97 ticks)

        Nodes                                         Cuts/
   Node  Left     Objective  IInf  Best Integer    Best Bound    ItCnt     Gap

      0     0      800.0000   767                    800.0000     1679         
      0     0      800.0000   737                     Cuts: 9     1856         
      0     0      800.0000   750                ZeroHalf: 26     2158         
      0     0      800.0000   718                 ZeroHalf: 2     2191         
      0     0      800.0000   710                ZeroHalf: 40     2388         
      0     0      800.0000   746                ZeroHalf: 35     3244         
*     0+    0                          708.0000      800.0000            12.99%
*     0+    0                          712.0000      800.0000            12.36%
*     0+    0                          728.0000      800.0000             9.89%
      0     0        cutoff            728.0000      800.0000     4087    9.89%
      0     2      800.0000   659      728.0000      800.0000     5152    9.89%
Elapsed time = 2.26 sec. (1544.70 ticks, tree = 0.01 MB, solutions = 3)
      7     9      800.0000   569      728.0000      800.0000     8086    9.89%
     22    22      800.0000   406      728.0000      800.0000    10389    9.89%
     30    30      800.0000   632      728.0000      800.0000    12437    9.89%
     37    37      800.0000   638      728.0000      800.0000    15204    9.89%
     41    41      800.0000   591      728.0000      800.0000    16372    9.89%
     48    48      800.0000   613      728.0000      800.0000    19284    9.89%
     53    53      800.0000   556      728.0000      800.0000    21230    9.89%
     66    66      800.0000   514      728.0000      800.0000    23611    9.89%
     71    69      796.7778   622      728.0000      800.0000    26503    9.89%
    119   111      799.3197   573      728.0000      800.0000    34250    9.89%
Elapsed time = 6.31 sec. (4927.71 ticks, tree = 1.36 MB, solutions = 3)
    152   128    infeasible            728.0000      800.0000    42891    9.89%
    182   144    infeasible            728.0000      800.0000    52862    9.89%
    198   138    infeasible            728.0000      800.0000    63834    9.89%
    229   153      800.0000   503      728.0000      800.0000    71724    9.89%
    259   173      796.5556   461      728.0000      800.0000    79611    9.89%
    293   195      796.9697   508      728.0000      800.0000    87589    9.89%
    357   213      800.0000   332      728.0000      800.0000    97273    9.89%
    400   240      799.8788   619      728.0000      800.0000   105836    9.89%
    421   245      800.0000   637      728.0000      800.0000   113873    9.89%
    452   266      800.0000   582      728.0000      800.0000   123475    9.89%
Elapsed time = 18.89 sec. (14885.59 ticks, tree = 4.19 MB, solutions = 3)
    484   284      798.6667   197      728.0000      800.0000   131048    9.89%
    531   297      798.0000   577      728.0000      800.0000   140191    9.89%
    553   301    infeasible            728.0000      800.0000   149495    9.89%
*   562   226      integral     0      798.0000      800.0000   150950    0.25%
    579   224    infeasible            798.0000      800.0000   159057    0.25%
    605   220    infeasible            798.0000      800.0000   167805    0.25%
    638   223      800.0000   507      798.0000      800.0000   177056    0.25%
    679   226      800.0000   384      798.0000      800.0000   185337    0.25%
*   680+    1                          800.0000      800.0000             0.00%

Cover cuts applied:  6
Zero-half cuts applied:  28

Root node processing (before b&c):
  Real time             =    2.14 sec. (1448.66 ticks)
Sequential b&c:
  Real time             =   25.40 sec. (20445.39 ticks)
                          ------------
Total (root+branch&cut) =   27.54 sec. (21894.05 ticks)
Solution is feasible.

---------------------
@@@ MIP_optimal
>>> Benchmark flat50-6.cnf k 5 OPT 800 TimeCost 27.972594738006592 TimeSolve 27.677342891693115 TimeRead 0.02138686180114746 TimeTrans 0.2738649845123291
